p cnf 434 843 
-1  2 0 
-3  2 0 
-1 -3  4 0 
 2 -4 0 
-4  5 0 
-6  5 0 
-4 -6  7 0 
 5 -7 0 
-7  8 0 
-9  8 0 
-7 -9  10 0 
 8 -10 0 
-10  11 0 
-12  11 0 
-10 -12  13 0 
 11 -13 0 
-13  14 0 
-15  14 0 
-13 -15  16 0 
 14 -16 0 
-16  17 0 
-18  17 0 
-16 -18  19 0 
 17 -19 0 
-19  20 0 
-21  20 0 
-19 -21  22 0 
 20 -22 0 
-22  23 0 
-24  23 0 
-22 -24  25 0 
 23 -25 0 
-25  26 0 
-27  26 0 
-25 -27  28 0 
 26 -28 0 
-28  29 0 
-30  29 0 
-28 -30  31 0 
 29 -31 0 
-31  32 0 
-33  32 0 
-31 -33  34 0 
 32 -34 0 
-34  35 0 
-36  35 0 
-34 -36  37 0 
 35 -37 0 
-37  38 0 
-39  38 0 
-37 -39  40 0 
 38 -40 0 
-40  41 0 
-42  41 0 
-40 -42  43 0 
 41 -43 0 
-43  44 0 
-45  44 0 
-43 -45 0 
-2  46 0 
-5  46 0 
-2 -5  47 0 
 46 -47 0 
-47  48 0 
-8  48 0 
-47 -8  49 0 
 48 -49 0 
-49  50 0 
-11  50 0 
-49 -11  51 0 
 50 -51 0 
-51  52 0 
-14  52 0 
-51 -14  53 0 
 52 -53 0 
-53  54 0 
-17  54 0 
-53 -17  55 0 
 54 -55 0 
-55  56 0 
-20  56 0 
-55 -20  57 0 
 56 -57 0 
-57  58 0 
-23  58 0 
-57 -23  59 0 
 58 -59 0 
-59  60 0 
-26  60 0 
-59 -26  61 0 
 60 -61 0 
-61  62 0 
-29  62 0 
-61 -29  63 0 
 62 -63 0 
-63  64 0 
-32  64 0 
-63 -32  65 0 
 64 -65 0 
-65  66 0 
-35  66 0 
-65 -35  67 0 
 66 -67 0 
-67  68 0 
-38  68 0 
-67 -38  69 0 
 68 -69 0 
-69  70 0 
-41  70 0 
-69 -41  71 0 
 70 -71 0 
-71  72 0 
-44  72 0 
-71 -44 0 
-46  73 0 
-48  73 0 
-46 -48  74 0 
 73 -74 0 
-74  75 0 
-50  75 0 
-74 -50  76 0 
 75 -76 0 
-76  77 0 
-52  77 0 
-76 -52  78 0 
 77 -78 0 
-78  79 0 
-54  79 0 
-78 -54  80 0 
 79 -80 0 
-80  81 0 
-56  81 0 
-80 -56  82 0 
 81 -82 0 
-82  83 0 
-58  83 0 
-82 -58  84 0 
 83 -84 0 
-84  85 0 
-60  85 0 
-84 -60  86 0 
 85 -86 0 
-86  87 0 
-62  87 0 
-86 -62  88 0 
 87 -88 0 
-88  89 0 
-64  89 0 
-88 -64  90 0 
 89 -90 0 
-90  91 0 
-66  91 0 
-90 -66  92 0 
 91 -92 0 
-92  93 0 
-68  93 0 
-92 -68  94 0 
 93 -94 0 
-94  95 0 
-70  95 0 
-94 -70  96 0 
 95 -96 0 
-96  97 0 
-72  97 0 
-96 -72 0 
-73  98 0 
-75  98 0 
-73 -75  99 0 
 98 -99 0 
-99  100 0 
-77  100 0 
-99 -77  101 0 
 100 -101 0 
-101  102 0 
-79  102 0 
-101 -79  103 0 
 102 -103 0 
-103  104 0 
-81  104 0 
-103 -81  105 0 
 104 -105 0 
-105  106 0 
-83  106 0 
-105 -83  107 0 
 106 -107 0 
-107  108 0 
-85  108 0 
-107 -85  109 0 
 108 -109 0 
-109  110 0 
-87  110 0 
-109 -87  111 0 
 110 -111 0 
-111  112 0 
-89  112 0 
-111 -89  113 0 
 112 -113 0 
-113  114 0 
-91  114 0 
-113 -91  115 0 
 114 -115 0 
-115  116 0 
-93  116 0 
-115 -93  117 0 
 116 -117 0 
-117  118 0 
-95  118 0 
-117 -95  119 0 
 118 -119 0 
-119  120 0 
-97  120 0 
-119 -97 0 
-98  121 0 
-100  121 0 
-98 -100  122 0 
 121 -122 0 
-122  123 0 
-102  123 0 
-122 -102  124 0 
 123 -124 0 
-124  125 0 
-104  125 0 
-124 -104  126 0 
 125 -126 0 
-126  127 0 
-106  127 0 
-126 -106  128 0 
 127 -128 0 
-128  129 0 
-108  129 0 
-128 -108  130 0 
 129 -130 0 
-130  131 0 
-110  131 0 
-130 -110  132 0 
 131 -132 0 
-132  133 0 
-112  133 0 
-132 -112  134 0 
 133 -134 0 
-134  135 0 
-114  135 0 
-134 -114  136 0 
 135 -136 0 
-136  137 0 
-116  137 0 
-136 -116  138 0 
 137 -138 0 
-138  139 0 
-118  139 0 
-138 -118  140 0 
 139 -140 0 
-140  141 0 
-120  141 0 
-140 -120 0 
-121  142 0 
-123  142 0 
-121 -123  143 0 
 142 -143 0 
-143  144 0 
-125  144 0 
-143 -125  145 0 
 144 -145 0 
-145  146 0 
-127  146 0 
-145 -127  147 0 
 146 -147 0 
-147  148 0 
-129  148 0 
-147 -129  149 0 
 148 -149 0 
-149  150 0 
-131  150 0 
-149 -131  151 0 
 150 -151 0 
-151  152 0 
-133  152 0 
-151 -133  153 0 
 152 -153 0 
-153  154 0 
-135  154 0 
-153 -135  155 0 
 154 -155 0 
-155  156 0 
-137  156 0 
-155 -137  157 0 
 156 -157 0 
-157  158 0 
-139  158 0 
-157 -139  159 0 
 158 -159 0 
-159  160 0 
-141  160 0 
-159 -141 0 
-142  161 0 
-144  161 0 
-142 -144  162 0 
 161 -162 0 
-162  163 0 
-146  163 0 
-162 -146  164 0 
 163 -164 0 
-164  165 0 
-148  165 0 
-164 -148  166 0 
 165 -166 0 
-166  167 0 
-150  167 0 
-166 -150  168 0 
 167 -168 0 
-168  169 0 
-152  169 0 
-168 -152  170 0 
 169 -170 0 
-170  171 0 
-154  171 0 
-170 -154  172 0 
 171 -172 0 
-172  173 0 
-156  173 0 
-172 -156  174 0 
 173 -174 0 
-174  175 0 
-158  175 0 
-174 -158  176 0 
 175 -176 0 
-176  177 0 
-160  177 0 
-176 -160 0 
-161  178 0 
-163  178 0 
-161 -163  179 0 
 178 -179 0 
-179  180 0 
-165  180 0 
-179 -165  181 0 
 180 -181 0 
-181  182 0 
-167  182 0 
-181 -167  183 0 
 182 -183 0 
-183  184 0 
-169  184 0 
-183 -169  185 0 
 184 -185 0 
-185  186 0 
-171  186 0 
-185 -171  187 0 
 186 -187 0 
-187  188 0 
-173  188 0 
-187 -173  189 0 
 188 -189 0 
-189  190 0 
-175  190 0 
-189 -175  191 0 
 190 -191 0 
-191  192 0 
-177  192 0 
-191 -177 0 
-178  193 0 
-180  193 0 
-178 -180  194 0 
 193 -194 0 
-194  195 0 
-182  195 0 
-194 -182  196 0 
 195 -196 0 
-196  197 0 
-184  197 0 
-196 -184  198 0 
 197 -198 0 
-198  199 0 
-186  199 0 
-198 -186  200 0 
 199 -200 0 
-200  201 0 
-188  201 0 
-200 -188  202 0 
 201 -202 0 
-202  203 0 
-190  203 0 
-202 -190  204 0 
 203 -204 0 
-204  205 0 
-192  205 0 
-204 -192 0 
-193  206 0 
-195  206 0 
-193 -195  207 0 
 206 -207 0 
-207  208 0 
-197  208 0 
-207 -197  209 0 
 208 -209 0 
-209  210 0 
-199  210 0 
-209 -199  211 0 
 210 -211 0 
-211  212 0 
-201  212 0 
-211 -201  213 0 
 212 -213 0 
-213  214 0 
-203  214 0 
-213 -203  215 0 
 214 -215 0 
-215  216 0 
-205  216 0 
-215 -205 0 
-206  217 0 
-208  217 0 
-206 -208  218 0 
 217 -218 0 
-218  219 0 
-210  219 0 
-218 -210  220 0 
 219 -220 0 
-220  221 0 
-212  221 0 
-220 -212  222 0 
 221 -222 0 
-222  223 0 
-214  223 0 
-222 -214  224 0 
 223 -224 0 
-224  225 0 
-216  225 0 
-224 -216 0 
-217 -219  226 0 
 227 -226 0 
-226 -221  228 0 
 227 -228 0 
-228 -223  229 0 
 227 -229 0 
-229 -225 0 
 1  3 -230 0 
 1 -231 0 
 3 -231 0 
 230 -231 0 
 231  6 -232 0 
 231 -233 0 
 6 -233 0 
 232 -233 0 
 233  9 -234 0 
 233 -235 0 
 9 -235 0 
 234 -235 0 
 235  12 -236 0 
 235 -237 0 
 12 -237 0 
 236 -237 0 
 237  15 -238 0 
 237 -239 0 
 15 -239 0 
 238 -239 0 
 239  18 -240 0 
 239 -241 0 
 18 -241 0 
 240 -241 0 
 241  21 -242 0 
 241 -243 0 
 21 -243 0 
 242 -243 0 
 243  24 -244 0 
 243 -245 0 
 24 -245 0 
 244 -245 0 
 245  27 -246 0 
 245 -247 0 
 27 -247 0 
 246 -247 0 
 247  30 -248 0 
 247 -249 0 
 30 -249 0 
 248 -249 0 
 249  33 -250 0 
 249 -251 0 
 33 -251 0 
 250 -251 0 
 251  36 -252 0 
 251 -253 0 
 36 -253 0 
 252 -253 0 
 253  39 -254 0 
 253 -255 0 
 39 -255 0 
 254 -255 0 
 255  42 -256 0 
 255 -257 0 
 42 -257 0 
 256 -257 0 
 257  45 -258 0 
 230  232 -259 0 
 230 -260 0 
 232 -260 0 
 259 -260 0 
 260  234 -261 0 
 260 -262 0 
 234 -262 0 
 261 -262 0 
 262  236 -263 0 
 262 -264 0 
 236 -264 0 
 263 -264 0 
 264  238 -265 0 
 264 -266 0 
 238 -266 0 
 265 -266 0 
 266  240 -267 0 
 266 -268 0 
 240 -268 0 
 267 -268 0 
 268  242 -269 0 
 268 -270 0 
 242 -270 0 
 269 -270 0 
 270  244 -271 0 
 270 -272 0 
 244 -272 0 
 271 -272 0 
 272  246 -273 0 
 272 -274 0 
 246 -274 0 
 273 -274 0 
 274  248 -275 0 
 274 -276 0 
 248 -276 0 
 275 -276 0 
 276  250 -277 0 
 276 -278 0 
 250 -278 0 
 277 -278 0 
 278  252 -279 0 
 278 -280 0 
 252 -280 0 
 279 -280 0 
 280  254 -281 0 
 280 -282 0 
 254 -282 0 
 281 -282 0 
 282  256 -283 0 
 282 -284 0 
 256 -284 0 
 283 -284 0 
 284  258 -285 0 
 259  261 -286 0 
 259 -287 0 
 261 -287 0 
 286 -287 0 
 287  263 -288 0 
 287 -289 0 
 263 -289 0 
 288 -289 0 
 289  265 -290 0 
 289 -291 0 
 265 -291 0 
 290 -291 0 
 291  267 -292 0 
 291 -293 0 
 267 -293 0 
 292 -293 0 
 293  269 -294 0 
 293 -295 0 
 269 -295 0 
 294 -295 0 
 295  271 -296 0 
 295 -297 0 
 271 -297 0 
 296 -297 0 
 297  273 -298 0 
 297 -299 0 
 273 -299 0 
 298 -299 0 
 299  275 -300 0 
 299 -301 0 
 275 -301 0 
 300 -301 0 
 301  277 -302 0 
 301 -303 0 
 277 -303 0 
 302 -303 0 
 303  279 -304 0 
 303 -305 0 
 279 -305 0 
 304 -305 0 
 305  281 -306 0 
 305 -307 0 
 281 -307 0 
 306 -307 0 
 307  283 -308 0 
 307 -309 0 
 283 -309 0 
 308 -309 0 
 309  285 -310 0 
 286  288 -311 0 
 286 -312 0 
 288 -312 0 
 311 -312 0 
 312  290 -313 0 
 312 -314 0 
 290 -314 0 
 313 -314 0 
 314  292 -315 0 
 314 -316 0 
 292 -316 0 
 315 -316 0 
 316  294 -317 0 
 316 -318 0 
 294 -318 0 
 317 -318 0 
 318  296 -319 0 
 318 -320 0 
 296 -320 0 
 319 -320 0 
 320  298 -321 0 
 320 -322 0 
 298 -322 0 
 321 -322 0 
 322  300 -323 0 
 322 -324 0 
 300 -324 0 
 323 -324 0 
 324  302 -325 0 
 324 -326 0 
 302 -326 0 
 325 -326 0 
 326  304 -327 0 
 326 -328 0 
 304 -328 0 
 327 -328 0 
 328  306 -329 0 
 328 -330 0 
 306 -330 0 
 329 -330 0 
 330  308 -331 0 
 330 -332 0 
 308 -332 0 
 331 -332 0 
 332  310 -333 0 
 311  313 -334 0 
 311 -335 0 
 313 -335 0 
 334 -335 0 
 335  315 -336 0 
 335 -337 0 
 315 -337 0 
 336 -337 0 
 337  317 -338 0 
 337 -339 0 
 317 -339 0 
 338 -339 0 
 339  319 -340 0 
 339 -341 0 
 319 -341 0 
 340 -341 0 
 341  321 -342 0 
 341 -343 0 
 321 -343 0 
 342 -343 0 
 343  323 -344 0 
 343 -345 0 
 323 -345 0 
 344 -345 0 
 345  325 -346 0 
 345 -347 0 
 325 -347 0 
 346 -347 0 
 347  327 -348 0 
 347 -349 0 
 327 -349 0 
 348 -349 0 
 349  329 -350 0 
 349 -351 0 
 329 -351 0 
 350 -351 0 
 351  331 -352 0 
 351 -353 0 
 331 -353 0 
 352 -353 0 
 353  333 -354 0 
 334  336 -355 0 
 334 -356 0 
 336 -356 0 
 355 -356 0 
 356  338 -357 0 
 356 -358 0 
 338 -358 0 
 357 -358 0 
 358  340 -359 0 
 358 -360 0 
 340 -360 0 
 359 -360 0 
 360  342 -361 0 
 360 -362 0 
 342 -362 0 
 361 -362 0 
 362  344 -363 0 
 362 -364 0 
 344 -364 0 
 363 -364 0 
 364  346 -365 0 
 364 -366 0 
 346 -366 0 
 365 -366 0 
 366  348 -367 0 
 366 -368 0 
 348 -368 0 
 367 -368 0 
 368  350 -369 0 
 368 -370 0 
 350 -370 0 
 369 -370 0 
 370  352 -371 0 
 370 -372 0 
 352 -372 0 
 371 -372 0 
 372  354 -373 0 
 355  357 -374 0 
 355 -375 0 
 357 -375 0 
 374 -375 0 
 375  359 -376 0 
 375 -377 0 
 359 -377 0 
 376 -377 0 
 377  361 -378 0 
 377 -379 0 
 361 -379 0 
 378 -379 0 
 379  363 -380 0 
 379 -381 0 
 363 -381 0 
 380 -381 0 
 381  365 -382 0 
 381 -383 0 
 365 -383 0 
 382 -383 0 
 383  367 -384 0 
 383 -385 0 
 367 -385 0 
 384 -385 0 
 385  369 -386 0 
 385 -387 0 
 369 -387 0 
 386 -387 0 
 387  371 -388 0 
 387 -389 0 
 371 -389 0 
 388 -389 0 
 389  373 -390 0 
 374  376 -391 0 
 374 -392 0 
 376 -392 0 
 391 -392 0 
 392  378 -393 0 
 392 -394 0 
 378 -394 0 
 393 -394 0 
 394  380 -395 0 
 394 -396 0 
 380 -396 0 
 395 -396 0 
 396  382 -397 0 
 396 -398 0 
 382 -398 0 
 397 -398 0 
 398  384 -399 0 
 398 -400 0 
 384 -400 0 
 399 -400 0 
 400  386 -401 0 
 400 -402 0 
 386 -402 0 
 401 -402 0 
 402  388 -403 0 
 402 -404 0 
 388 -404 0 
 403 -404 0 
 404  390 -405 0 
 391  393 -406 0 
 391 -407 0 
 393 -407 0 
 406 -407 0 
 407  395 -408 0 
 407 -409 0 
 395 -409 0 
 408 -409 0 
 409  397 -410 0 
 409 -411 0 
 397 -411 0 
 410 -411 0 
 411  399 -412 0 
 411 -413 0 
 399 -413 0 
 412 -413 0 
 413  401 -414 0 
 413 -415 0 
 401 -415 0 
 414 -415 0 
 415  403 -416 0 
 415 -417 0 
 403 -417 0 
 416 -417 0 
 417  405 -418 0 
 406  408 -419 0 
 406 -420 0 
 408 -420 0 
 419 -420 0 
 420  410 -421 0 
 420 -422 0 
 410 -422 0 
 421 -422 0 
 422  412 -423 0 
 422 -424 0 
 412 -424 0 
 423 -424 0 
 424  414 -425 0 
 424 -426 0 
 414 -426 0 
 425 -426 0 
 426  416 -427 0 
 426 -428 0 
 416 -428 0 
 427 -428 0 
 428  418 -429 0 
 419  421 0 
 419 -430 0 
 421 -430 0 
 431 -430 0 
 430  423 0 
 430 -432 0 
 423 -432 0 
 431 -432 0 
 432  425 0 
 432 -433 0 
 425 -433 0 
 431 -433 0 
 433  427 0 
 433 -434 0 
 427 -434 0 
 431 -434 0 
 434  429 0 
